# Solution for model GasLib-40
# Objective value = 1.0686543569756983e+01
loadshed[innode_1] 0
loadshed[innode_2] 0
loadshed[innode_3] 0
loadshed[innode_4] 0
loadshed[innode_5] 0
loadshed[innode_6] 0
loadshed[innode_7] 0
loadshed[innode_8] 0
loadshed[source_1] -3.0953463468421272e-01
loadshed[source_2] 8.3293807537427988e-02
loadshed[source_3] 2.9383855497644695e-01
loadshed[sink_1] 0
loadshed[sink_2] 0
loadshed[sink_3] 0
loadshed[sink_4] 0
loadshed[sink_5] 0
loadshed[sink_6] 0
loadshed[sink_7] 0
loadshed[sink_8] 0
loadshed[sink_9] 0
loadshed[sink_10] 0
loadshed[sink_11] 0
loadshed[sink_12] 6.5344470235456709e-01
loadshed[sink_13] 0
loadshed[sink_14] 0
loadshed[sink_15] 0
loadshed[sink_16] 0
loadshed[sink_17] 0
loadshed[sink_18] 0
loadshed[sink_19] 0
loadshed[sink_20] 0
loadshed[sink_21] 0
loadshed[sink_22] 0
loadshed[sink_23] 0
loadshed[sink_24] 0
loadshed[sink_25] 0
loadshed[sink_26] 0
loadshed[sink_27] 0
loadshed[sink_28] 0
loadshed[sink_29] 0
flow[source_1,sink_3] 2.0702469415684794e+02
flow[innode_1,sink_16] 1.6354166666666970e+01
flow[innode_6,sink_13] 2.8419076669496803e+00
flow[sink_13,sink_14] -1.3512258999716988e+01
flow[sink_14,sink_10] -2.9866425666383655e+01
flow[sink_25,sink_26] 1.7361423690529060e+02
flow[sink_26,sink_9] 1.2270102346068549e+02
flow[sink_9,sink_18] 1.0634685679401882e+02
flow[sink_26,sink_4] 3.4559046777938455e+01
flow[sink_4,sink_20] -2.8303386191619438e+01
flow[sink_18,sink_6] 8.9992690127352148e+01
flow[sink_25,innode_8] -1.7431636082351156e+02
flow[sink_6,sink_7] 4.0930190127351125e+01
flow[sink_6,sink_22] 3.2708333333333641e+01
flow[sink_7,sink_24] 3.8375956430243022e+01
flow[sink_22,sink_1] 1.6354166666666970e+01
flow[sink_24,sink_21] 2.2021789763576354e+01
flow[sink_21,sink_12] 5.6676230969096855e+00
flow[sink_7,sink_5] -1.3799932969557844e+01
flow[sink_5,sink_17] -3.0154099636224487e+01
flow[sink_17,sink_4] -4.6508266302891158e+01
flow[sink_17,sink_8] 0
flow[sink_3,sink_23] 16.3541666666697
flow[sink_8,sink_20] -1.6354166666668334e+01
flow[sink_25,sink_20] 6.1011719524954515e+01
flow[sink_25,sink_15] -7.9505669940349136e+01
flow[sink_15,sink_29] 0
flow[sink_29,sink_28] 1.6354166666667879e+01
flow[sink_29,sink_2] 1.1221400327368248e+02
flow[sink_2,sink_15] 9.5859836607015808e+01
flow[sink_29,innode_7] -1.4492233660701703e+02
flow[innode_4,sink_19] 9.5283092333050746e+01
flow[sink_19,innode_3] 3.8516982566381259e+01
flow[innode_4,innode_5] 1.6354166666679703e+01
flow[sink_27,innode_5] -1.6354166666679703e+01
flow[sink_27,sink_19] 0
flow[sink_10,sink_11] 3.2708333333333641e+01
flow[sink_10,innode_2] -40.4119431000027
flow[sink_10,innode_3] -3.8516982566381259e+01
flow[innode_6,sink_25] -2.8419076669496803e+00
flow[sink_11,innode_1] 1.6354166666666970e+01
flow[sink_19,innode_2] 40.4119431000027
flow[source_3,innode_4] 1.1163725899973045e+02
flow[source_2,innode_7] 1.4492233660701703e+02
flow[sink_3,innode_8] 1.7431636082351156e+02
pressure[innode_1] 7.4865449739655020e+01
pressure[innode_2] 7.7153089146885108e+01
pressure[innode_3] 7.7067797650566987e+01
pressure[innode_4] 81.01325
pressure[innode_5] 8.1002000741808772e+01
pressure[innode_6] 7.3595996673631774e+01
pressure[innode_7] 81.01325
pressure[innode_8] 8.0321245533733389e+01
pressure[source_1] 81.01325
pressure[source_2] 81.01325
pressure[source_3] 81.01325
pressure[sink_1] 45.6723783624415
pressure[sink_2] 7.4294637884257440e+01
pressure[sink_3] 8.0321245533733389e+01
pressure[sink_4] 56.9745212762263
pressure[sink_5] 5.2950866231591220e+01
pressure[sink_6] 4.7773455972828870e+01
pressure[sink_7] 4.7211582025187340e+01
pressure[sink_8] 5.7911333867218438e+01
pressure[sink_9] 5.4024474989633191e+01
pressure[sink_10] 7.5017151047258565e+01
pressure[sink_11] 7.4865449739655020e+01
pressure[sink_12] 1.0132499999999998e+00
pressure[sink_13] 7.3580329711590764e+01
pressure[sink_14] 7.3604511050060736e+01
pressure[sink_15] 7.3981676644903231e+01
pressure[sink_16] 7.3843799904837340e+01
pressure[sink_17] 5.5197128694397477e+01
pressure[sink_18] 5.0176528742679928e+01
pressure[sink_19] 7.7153089146885108e+01
pressure[sink_20] 5.9050989290806726e+01
pressure[sink_21] 3.0301004881008180e+00
pressure[sink_22] 4.6736147504796506e+01
pressure[sink_23] 80.1565275220736
pressure[sink_24] 3.2739713490495470e+00
pressure[sink_25] 7.3595996673631774e+01
pressure[sink_26] 6.1368447926379339e+01
pressure[sink_27] 8.0866291377726043e+01
pressure[sink_28] 76.8418629547465
pressure[sink_29] 7.7137145228363678e+01
interdiction[source_1,sink_3] 0
interdiction[innode_1,sink_16] 0
interdiction[innode_6,sink_13] 0
interdiction[sink_13,sink_14] 0
interdiction[sink_14,sink_10] 0
interdiction[sink_25,sink_26] 0
interdiction[sink_26,sink_9] 0
interdiction[sink_9,sink_18] 0
interdiction[sink_26,sink_4] 0
interdiction[sink_4,sink_20] 0
interdiction[sink_18,sink_6] 0
interdiction[sink_25,innode_8] 0
interdiction[sink_6,sink_7] 0
interdiction[sink_6,sink_22] 0
interdiction[sink_7,sink_24] 0
interdiction[sink_22,sink_1] 0
interdiction[sink_24,sink_21] 0
interdiction[sink_21,sink_12] 0
interdiction[sink_7,sink_5] 0
interdiction[sink_5,sink_17] 0
interdiction[sink_17,sink_4] 0
interdiction[sink_17,sink_8] 1
interdiction[sink_3,sink_23] 0
interdiction[sink_8,sink_20] 0
interdiction[sink_25,sink_20] 0
interdiction[sink_25,sink_15] 0
interdiction[sink_15,sink_29] 1
interdiction[sink_29,sink_28] 0
interdiction[sink_29,sink_2] 0
interdiction[sink_2,sink_15] 0
interdiction[sink_29,innode_7] 0
interdiction[innode_4,sink_19] 0
interdiction[sink_19,innode_3] 0
interdiction[innode_4,innode_5] 0
interdiction[sink_27,innode_5] 0
interdiction[sink_27,sink_19] 1
interdiction[sink_10,sink_11] 0
interdiction[sink_10,innode_2] 0
interdiction[sink_10,innode_3] 0
interdiction[innode_6,sink_25] 0
interdiction[sink_11,innode_1] 0
interdiction[sink_19,innode_2] 0
interdiction[source_3,innode_4] 0
interdiction[source_2,innode_7] 0
interdiction[sink_3,innode_8] 0
WCcheckFlow[source_1,sink_3] 39
WCcheckFlow[innode_1,sink_16] 1
WCcheckFlow[innode_6,sink_13] 13
WCcheckFlow[sink_13,sink_14] 12
WCcheckFlow[sink_14,sink_10] 11
WCcheckFlow[sink_25,sink_26] 15
WCcheckFlow[sink_26,sink_9] 11
WCcheckFlow[sink_9,sink_18] 10
WCcheckFlow[sink_26,sink_4] 3
WCcheckFlow[sink_4,sink_20] 2
WCcheckFlow[sink_18,sink_6] 9
WCcheckFlow[sink_25,innode_8] -36
WCcheckFlow[sink_6,sink_7] 6
WCcheckFlow[sink_6,sink_22] 2
WCcheckFlow[sink_7,sink_24] 3
WCcheckFlow[sink_22,sink_1] 1
WCcheckFlow[sink_24,sink_21] 2
WCcheckFlow[sink_21,sink_12] 1
WCcheckFlow[sink_7,sink_5] 2
WCcheckFlow[sink_5,sink_17] 1
WCcheckFlow[sink_17,sink_4] 0
WCcheckFlow[sink_17,sink_8] 0
WCcheckFlow[sink_3,sink_23] 1
WCcheckFlow[sink_8,sink_20] -1
WCcheckFlow[sink_25,sink_20] 0
WCcheckFlow[sink_25,sink_15] 6
WCcheckFlow[sink_15,sink_29] 0
WCcheckFlow[sink_29,sink_28] 1
WCcheckFlow[sink_29,sink_2] -4
WCcheckFlow[sink_2,sink_15] -5
WCcheckFlow[sink_29,innode_7] 2
WCcheckFlow[innode_4,sink_19] -4
WCcheckFlow[sink_19,innode_3] -5
WCcheckFlow[innode_4,innode_5] 2
WCcheckFlow[sink_27,innode_5] -1
WCcheckFlow[sink_27,sink_19] 0
WCcheckFlow[sink_10,sink_11] 3
WCcheckFlow[sink_10,innode_2] 1
WCcheckFlow[sink_10,innode_3] 6
WCcheckFlow[innode_6,sink_25] -14
WCcheckFlow[sink_11,innode_1] 2
WCcheckFlow[sink_19,innode_2] 0
WCcheckFlow[source_3,innode_4] -1
WCcheckFlow[source_2,innode_7] -1
WCcheckFlow[sink_3,innode_8] 37
